".variable",".value",".lower",".upper",".width",".point",".interval","model"
"b_availablePerStepScaled",-0.626057016326247,-0.95822619745029,-0.372432352916026,0.95,"median","hdci","ssfBrms_OPHA_H1_binary_OPHA_H1_binary"
"b_Intercept",0.073058838655931,-0.528829550564464,0.650330568835746,0.95,"median","hdci","ssfBrms_OPHA_H1_binary_OPHA_H1_binary"
"b_modelFormulamf.ss",0.0953063997674961,-0.489463222642507,0.61915831013683,0.95,"median","hdci","ssfBrms_OPHA_H1_binary_OPHA_H1_binary"
"b_stepDistgamma",-0.868969428773825,-1.46375216707532,-0.321784457350163,0.95,"median","hdci","ssfBrms_OPHA_H1_binary_OPHA_H1_binary"
"b_turnDistvonmises",-0.135678223826519,-0.649447922843393,0.41927879580458,0.95,"median","hdci","ssfBrms_OPHA_H1_binary_OPHA_H1_binary"
"b_availablePerStepScaled",-0.264398638849286,-0.592879745045307,0.122221113039699,0.95,"median","hdci","ssfBrms_OPHA_H2_binary_OPHA_H2_binary"
"b_Intercept",-1.98487297032078,-2.69061531573914,-1.19306865945811,0.95,"median","hdci","ssfBrms_OPHA_H2_binary_OPHA_H2_binary"
"b_modelFormulamf.ss",1.12422841259328,0.412139319802483,1.84619161944702,0.95,"median","hdci","ssfBrms_OPHA_H2_binary_OPHA_H2_binary"
"b_stepDistgamma",0.200710103453548,-0.524964676744461,0.993482060328792,0.95,"median","hdci","ssfBrms_OPHA_H2_binary_OPHA_H2_binary"
"b_turnDistvonmises",0.336060034314157,-0.385641851111422,1.07389575799213,0.95,"median","hdci","ssfBrms_OPHA_H2_binary_OPHA_H2_binary"
"b_availablePerStepScaled",0.00903617398514589,-0.0252894468185761,0.0392478296889674,0.95,"median","hdci","ssfBrms_OPHA_H1_continuous_OPHA_H1_continuous"
"b_Intercept",0.593115930030799,0.507573357193138,0.663173309193891,0.95,"median","hdci","ssfBrms_OPHA_H1_continuous_OPHA_H1_continuous"
"b_modelFormulamf.ss",-0.0947886935137291,-0.163229076803237,-0.0173978945698367,0.95,"median","hdci","ssfBrms_OPHA_H1_continuous_OPHA_H1_continuous"
"b_stepDistgamma",-0.0276416193287244,-0.0940160780686194,0.0344887551271399,0.95,"median","hdci","ssfBrms_OPHA_H1_continuous_OPHA_H1_continuous"
"b_turnDistvonmises",0.00861507134918292,-0.0552451125965004,0.0822415196993712,0.95,"median","hdci","ssfBrms_OPHA_H1_continuous_OPHA_H1_continuous"
"b_availablePerStepScaled",0.522010199793626,0.244746676632227,0.813506917668888,0.95,"median","hdci","ssfBrms_OPHA_H2_continuous_OPHA_H2_continuous"
"b_Intercept",0.515062498354695,0.307811109442726,0.713305701690664,0.95,"median","hdci","ssfBrms_OPHA_H2_continuous_OPHA_H2_continuous"
"b_modelFormulamf.ss",-0.0343033855304154,-0.125229689793544,0.0476009182490885,0.95,"median","hdci","ssfBrms_OPHA_H2_continuous_OPHA_H2_continuous"
"b_stepDistgamma",4.22545667596882,1.85226719314122,6.4583096792271,0.95,"median","hdci","ssfBrms_OPHA_H2_continuous_OPHA_H2_continuous"
"b_turnDistvonmises",0.0917825363267457,0.00117729596563233,0.176737627214503,0.95,"median","hdci","ssfBrms_OPHA_H2_continuous_OPHA_H2_continuous"
"b_availablePerStepScaled",-0.206368194164734,-0.865403869890375,0.533450683852852,0.95,"median","hdci","ssfBrms_PYBI_H1_binary_PYBI_H1_binary"
"b_Intercept",-1.95764242922647,-3.22383026666395,-0.420579868243803,0.95,"median","hdci","ssfBrms_PYBI_H1_binary_PYBI_H1_binary"
"b_modelFormulamf.ss",0.197186261917932,-1.11865894955627,1.58688601783071,0.95,"median","hdci","ssfBrms_PYBI_H1_binary_PYBI_H1_binary"
"b_stepDistgamma",0.350654567143092,-0.945791588744603,1.78516475523366,0.95,"median","hdci","ssfBrms_PYBI_H1_binary_PYBI_H1_binary"
"b_turnDistvonmises",0.318545166483176,-1.04457771420878,1.67312755041562,0.95,"median","hdci","ssfBrms_PYBI_H1_binary_PYBI_H1_binary"
"b_availablePerStepScaled",-0.000524964297971212,-0.0544393385064822,0.0520284419837024,0.95,"median","hdci","ssfBrms_PYBI_H1_continuous_PYBI_H1_continuous"
"b_Intercept",0.164966144388562,0.0670823361330142,0.252199110326906,0.95,"median","hdci","ssfBrms_PYBI_H1_continuous_PYBI_H1_continuous"
"b_modelFormulamf.ss",0.0668833644593483,-0.0415039114648774,0.184843432188454,0.95,"median","hdci","ssfBrms_PYBI_H1_continuous_PYBI_H1_continuous"
"b_stepDistgamma",0.079890471469155,-0.0222126096179361,0.185287951548074,0.95,"median","hdci","ssfBrms_PYBI_H1_continuous_PYBI_H1_continuous"
"b_turnDistvonmises",-0.0428050222749733,-0.146221221975729,0.0547523152070746,0.95,"median","hdci","ssfBrms_PYBI_H1_continuous_PYBI_H1_continuous"
"b_availablePerStepScaled",-0.0133044877717582,-0.123373398526341,0.0961103967939748,0.95,"median","hdci","ssfBrms_BUCA_H1_binary_BUCA_H1_binary"
"b_Intercept",3.22001006133512,2.53634580576102,3.987611010636,0.95,"median","hdci","ssfBrms_BUCA_H1_binary_BUCA_H1_binary"
"b_modelFormulamf.ss",-1.64260891427862,-2.38541521222894,-0.918041323613108,0.95,"median","hdci","ssfBrms_BUCA_H1_binary_BUCA_H1_binary"
"b_stepDistgamma",0.00286227762900145,-0.215626487239181,0.221856753919019,0.95,"median","hdci","ssfBrms_BUCA_H1_binary_BUCA_H1_binary"
"b_turnDistvonmises",0.0240022426453335,-0.190474009975578,0.273628731484194,0.95,"median","hdci","ssfBrms_BUCA_H1_binary_BUCA_H1_binary"
"b_availablePerStepScaled",0.302150027022754,-0.194027678593741,0.843647017100658,0.95,"median","hdci","ssfBrms_BUCA_H1_continuous_BUCA_H1_continuous"
"b_Intercept",12.1961594792598,8.33066584832381,15.8278547066484,0.95,"median","hdci","ssfBrms_BUCA_H1_continuous_BUCA_H1_continuous"
"b_modelFormulamf.ss",-8.26664160635004,-11.7868063988964,-4.36951364464597,0.95,"median","hdci","ssfBrms_BUCA_H1_continuous_BUCA_H1_continuous"
"b_stepDistgamma",-0.183970672751447,-1.18033516951139,0.928192720054407,0.95,"median","hdci","ssfBrms_BUCA_H1_continuous_BUCA_H1_continuous"
"b_turnDistvonmises",0.305791904336489,-0.674398610561762,1.32923480563889,0.95,"median","hdci","ssfBrms_BUCA_H1_continuous_BUCA_H1_continuous"
"b_availablePerStepScaled",-0.0490313774903886,-0.105920397856091,0.00694995447662653,0.95,"median","hdci","ssfBrms_BUFA_H1_binary_BUFA_H1_binary"
"b_Intercept",2.31368518520333,2.21182586738066,2.42680934324136,0.95,"median","hdci","ssfBrms_BUFA_H1_binary_BUFA_H1_binary"
"b_modelFormulamf.ss",-0.480185092827426,-0.601634529181679,-0.372734818301839,0.95,"median","hdci","ssfBrms_BUFA_H1_binary_BUFA_H1_binary"
"b_stepDistgamma",-0.000260778334911054,-0.118524943107962,0.117140100924292,0.95,"median","hdci","ssfBrms_BUFA_H1_binary_BUFA_H1_binary"
"b_turnDistvonmises",0.00745851457555115,-0.105653231006451,0.132630156023114,0.95,"median","hdci","ssfBrms_BUFA_H1_binary_BUFA_H1_binary"
"b_availablePerStepScaled",0.555195096334498,0.0804277579604955,0.961332616703632,0.95,"median","hdci","ssfBrms_BUFA_H1_continuous_BUFA_H1_continuous"
"b_Intercept",3.451813982757,2.69882891564205,4.23667587156116,0.95,"median","hdci","ssfBrms_BUFA_H1_continuous_BUFA_H1_continuous"
"b_modelFormulamf.ss",-0.380338177728365,-1.13921848758653,0.335479809939983,0.95,"median","hdci","ssfBrms_BUFA_H1_continuous_BUFA_H1_continuous"
"b_stepDistgamma",-0.210718429758527,-0.951624885133449,0.595739542334082,0.95,"median","hdci","ssfBrms_BUFA_H1_continuous_BUFA_H1_continuous"
"b_turnDistvonmises",0.190610093866812,-0.627685013750074,0.863407045109495,0.95,"median","hdci","ssfBrms_BUFA_H1_continuous_BUFA_H1_continuous"
"b_areaMethodKDEhref",0.179441743110927,0.149885300656878,0.209359467138888,0.95,"median","hdci","areaBasedBrms_OPHA_H1_binary_OPHA_H1_binary"
"b_areaMethodMCP",0.777231231448327,0.742715503871922,0.809400720042313,0.95,"median","hdci","areaBasedBrms_OPHA_H1_binary_OPHA_H1_binary"
"b_availablePointsScaled",-0.0257293980197557,-0.0369798813115184,-0.0132989882260013,0.95,"median","hdci","areaBasedBrms_OPHA_H1_binary_OPHA_H1_binary"
"b_contourScaled",-0.143467757998538,-0.156006332076312,-0.13050994638473,0.95,"median","hdci","areaBasedBrms_OPHA_H1_binary_OPHA_H1_binary"
"b_Intercept",0.900585421130143,0.87544930381602,0.928726198894859,0.95,"median","hdci","areaBasedBrms_OPHA_H1_binary_OPHA_H1_binary"
"b_samplingPatternst",0.0123597824537593,-0.0137769780864972,0.0341759075334155,0.95,"median","hdci","areaBasedBrms_OPHA_H1_binary_OPHA_H1_binary"
"b_testrandomisation",-0.00101438486997929,-0.0264176845251609,0.0249138526353176,0.95,"median","hdci","areaBasedBrms_OPHA_H1_binary_OPHA_H1_binary"
"b_areaMethodKDEhref",0.211110616651617,0.178307155489556,0.237011754076935,0.95,"median","hdci","areaBasedBrms_OPHA_H2_binary_OPHA_H2_binary"
"b_areaMethodMCP",0.859050753218264,0.82971872814235,0.885117394698905,0.95,"median","hdci","areaBasedBrms_OPHA_H2_binary_OPHA_H2_binary"
"b_availablePointsScaled",-0.000680734064848348,-0.0133598176630115,0.00991744340589196,0.95,"median","hdci","areaBasedBrms_OPHA_H2_binary_OPHA_H2_binary"
"b_contourScaled",-0.18316228555779,-0.195275396180697,-0.17127387312062,0.95,"median","hdci","areaBasedBrms_OPHA_H2_binary_OPHA_H2_binary"
"b_Intercept",-0.794183230184916,-0.823950438901127,-0.772404636642339,0.95,"median","hdci","areaBasedBrms_OPHA_H2_binary_OPHA_H2_binary"
"b_samplingPatternst",-0.0204820424123944,-0.0456324648078329,0.00361534803752681,0.95,"median","hdci","areaBasedBrms_OPHA_H2_binary_OPHA_H2_binary"
"b_testrandomisation",0.0259661901195293,0.00384287669537401,0.0502103782355966,0.95,"median","hdci","areaBasedBrms_OPHA_H2_binary_OPHA_H2_binary"
"b_areaMethodKDEhref",0.542681307777663,0.486641731494807,0.616121135877781,0.95,"median","hdci","areaBasedBrms_PYBI_H1_binary_PYBI_H1_binary"
"b_areaMethodMCP",0.855752724142614,0.794281358310941,0.925761295604194,0.95,"median","hdci","areaBasedBrms_PYBI_H1_binary_PYBI_H1_binary"
"b_availablePointsScaled",-0.00624360782855741,-0.0358440610051547,0.0192155629939118,0.95,"median","hdci","areaBasedBrms_PYBI_H1_binary_PYBI_H1_binary"
"b_contourScaled",-0.00931232398064858,-0.0355100954347063,0.018383552452484,0.95,"median","hdci","areaBasedBrms_PYBI_H1_binary_PYBI_H1_binary"
"b_Intercept",-0.629290177524033,-0.68953782186798,-0.566454700775819,0.95,"median","hdci","areaBasedBrms_PYBI_H1_binary_PYBI_H1_binary"
"b_samplingPatternst",0.0122288267806516,-0.0402003405350928,0.0623485670664995,0.95,"median","hdci","areaBasedBrms_PYBI_H1_binary_PYBI_H1_binary"
"b_testrandomisation",-0.0870840431512868,-0.154501674261252,-0.0419630135890335,0.95,"median","hdci","areaBasedBrms_PYBI_H1_binary_PYBI_H1_binary"
"b_areaMethodKDEhref",-0.243310776883097,-0.421556910474787,-0.0744601942490639,0.95,"median","hdci","areaBasedBrms_BUCA_H1_binary_BUCA_H1_binary"
"b_areaMethodMCP",-1.48086651619515,-1.66225441585294,-1.2845147943279,0.95,"median","hdci","areaBasedBrms_BUCA_H1_binary_BUCA_H1_binary"
"b_availablePointsScaled",0.0120379467874165,-0.0728863081199653,0.0862822908990885,0.95,"median","hdci","areaBasedBrms_BUCA_H1_binary_BUCA_H1_binary"
"b_contourScaled",0.359658027466978,0.287556534370021,0.43267262200398,0.95,"median","hdci","areaBasedBrms_BUCA_H1_binary_BUCA_H1_binary"
"b_Intercept",6.25808064609994,6.08364797870871,6.42440674858214,0.95,"median","hdci","areaBasedBrms_BUCA_H1_binary_BUCA_H1_binary"
"b_samplingPatternst",-0.010391190251847,-0.15062951552343,0.148299980126747,0.95,"median","hdci","areaBasedBrms_BUCA_H1_binary_BUCA_H1_binary"
"b_testrandomisation",-3.81318022873838,-3.96134387807853,-3.6672861385335,0.95,"median","hdci","areaBasedBrms_BUCA_H1_binary_BUCA_H1_binary"
"b_areaMethodKDEhref",2.88144989043335,2.08542399641478,3.53748973012445,0.95,"median","hdci","areaBasedBrms_BUFA_H1_binary_BUFA_H1_binary"
"b_areaMethodMCP",-1.03699828195224,-1.7374015095081,-0.228894929924665,0.95,"median","hdci","areaBasedBrms_BUFA_H1_binary_BUFA_H1_binary"
"b_availablePointsScaled",-0.051579982886024,-0.346407551260661,0.273479326620799,0.95,"median","hdci","areaBasedBrms_BUFA_H1_binary_BUFA_H1_binary"
"b_contourScaled",-0.033283780171226,-0.331946336405582,0.266429403495862,0.95,"median","hdci","areaBasedBrms_BUFA_H1_binary_BUFA_H1_binary"
"b_Intercept",11.7022446827241,10.9903521978292,12.3274713669172,0.95,"median","hdci","areaBasedBrms_BUFA_H1_binary_BUFA_H1_binary"
"b_samplingPatternst",-0.586771197458141,-1.15219729204499,0.065992118932719,0.95,"median","hdci","areaBasedBrms_BUFA_H1_binary_BUFA_H1_binary"
"b_testrandomisation",-9.60358889071314,-10.2328914066598,-8.93968033828208,0.95,"median","hdci","areaBasedBrms_BUFA_H1_binary_BUFA_H1_binary"
"b_availablePerStepScaled",-0.053901715387655,-2.42740901908445,2.70151978148195,0.95,"median","hdci","poisBrms_OPHA_H1_binary_OPHA_H1_binary"
"b_Intercept",0.353041185739753,-4.03697096259242,4.76352964806966,0.95,"median","hdci","poisBrms_OPHA_H1_binary_OPHA_H1_binary"
"b_modelFormulamf.ss",0.483593711751193,-4.06280922081114,4.91564109485358,0.95,"median","hdci","poisBrms_OPHA_H1_binary_OPHA_H1_binary"
"b_stepDistgamma",-0.10635089213899,-4.67582294595322,4.02878963670536,0.95,"median","hdci","poisBrms_OPHA_H1_binary_OPHA_H1_binary"
"b_turnDistvonmises",-0.0255486763205599,-4.26155103312531,4.24584017708278,0.95,"median","hdci","poisBrms_OPHA_H1_binary_OPHA_H1_binary"
"b_availablePerStepScaled",-0.0102419082933634,-2.38248684325308,2.66264523265498,0.95,"median","hdci","poisBrms_OPHA_H2_binary_OPHA_H2_binary"
"b_Intercept",-0.433557304656439,-5.0073749611653,3.8993970323639,0.95,"median","hdci","poisBrms_OPHA_H2_binary_OPHA_H2_binary"
"b_modelFormulamf.ss",0.515816238600215,-3.24888897308006,5.19614601168344,0.95,"median","hdci","poisBrms_OPHA_H2_binary_OPHA_H2_binary"
"b_stepDistgamma",0.17292625088185,-4.5197041449648,3.95510624182017,0.95,"median","hdci","poisBrms_OPHA_H2_binary_OPHA_H2_binary"
"b_turnDistvonmises",0.0258923138103473,-4.33676055176025,4.24409966610613,0.95,"median","hdci","poisBrms_OPHA_H2_binary_OPHA_H2_binary"
"b_availablePerStepScaled",0.143073441606214,0.0110966874190463,0.271142952366762,0.95,"median","hdci","poisBrms_OPHA_H1_continuous_OPHA_H1_continuous"
"b_Intercept",2.30729950331275,2.06514413639611,2.56004315059088,0.95,"median","hdci","poisBrms_OPHA_H1_continuous_OPHA_H1_continuous"
"b_modelFormulamf.ss",-0.134700919551821,-0.40175512293014,0.120692299892038,0.95,"median","hdci","poisBrms_OPHA_H1_continuous_OPHA_H1_continuous"
"b_stepDistgamma",-0.292263505705995,-0.536396478484355,-0.0207422079740882,0.95,"median","hdci","poisBrms_OPHA_H1_continuous_OPHA_H1_continuous"
"b_turnDistvonmises",-0.0397566807394029,-0.301061077973416,0.196331028843343,0.95,"median","hdci","poisBrms_OPHA_H1_continuous_OPHA_H1_continuous"
"b_availablePerStepScaled",-0.00626600289760129,-0.034438528656119,0.0236482594099602,0.95,"median","hdci","poisBrms_OPHA_H2_continuous_OPHA_H2_continuous"
"b_Intercept",0.0400890128974793,-0.0205993192844095,0.0957232901588073,0.95,"median","hdci","poisBrms_OPHA_H2_continuous_OPHA_H2_continuous"
"b_modelFormulamf.ss",0.22087206337614,0.160670602997209,0.284485336294869,0.95,"median","hdci","poisBrms_OPHA_H2_continuous_OPHA_H2_continuous"
"b_stepDistgamma",0.249735776550927,0.179451457432294,0.313149155277118,0.95,"median","hdci","poisBrms_OPHA_H2_continuous_OPHA_H2_continuous"
"b_turnDistvonmises",0.018981207337809,-0.0443993512009414,0.0784647578122066,0.95,"median","hdci","poisBrms_OPHA_H2_continuous_OPHA_H2_continuous"
"b_availablePerStepScaled",-0.0541040818028099,-5.43155521156078,4.84650751123186,0.95,"median","hdci","poisBrms_PYBI_H1_binary_PYBI_H1_binary"
"b_Intercept",-0.185677223293892,-7.61368610619935,8.37322439432535,0.95,"median","hdci","poisBrms_PYBI_H1_binary_PYBI_H1_binary"
"b_modelFormulamf.ss",0.199618689957216,-7.8326079653289,8.57541613912129,0.95,"median","hdci","poisBrms_PYBI_H1_binary_PYBI_H1_binary"
"b_stepDistgamma",0.123361142294614,-9.64056511952134,8.77366900816576,0.95,"median","hdci","poisBrms_PYBI_H1_binary_PYBI_H1_binary"
"b_turnDistvonmises",0.183224764942016,-9.35691620681763,8.81313829644157,0.95,"median","hdci","poisBrms_PYBI_H1_binary_PYBI_H1_binary"
"b_availablePerStepScaled",0.175895845093789,-0.0825844139169562,0.399353969718176,0.95,"median","hdci","poisBrms_PYBI_H1_continuous_PYBI_H1_continuous"
"b_Intercept",2.40725411275252,1.94818585420792,2.8796578422097,0.95,"median","hdci","poisBrms_PYBI_H1_continuous_PYBI_H1_continuous"
"b_modelFormulamf.ss",-0.14415714534748,-0.625118462731533,0.351341735332101,0.95,"median","hdci","poisBrms_PYBI_H1_continuous_PYBI_H1_continuous"
"b_stepDistgamma",-0.222803098890557,-0.701912937207012,0.249627392563881,0.95,"median","hdci","poisBrms_PYBI_H1_continuous_PYBI_H1_continuous"
"b_turnDistvonmises",0.0547339901101129,-0.414888418158989,0.52396707102226,0.95,"median","hdci","poisBrms_PYBI_H1_continuous_PYBI_H1_continuous"
"b_availablePerStepScaled",-0.158541651811301,-6.64323796853097,6.44075831580745,0.95,"median","hdci","poisBrms_BUCA_H1_binary_BUCA_H1_binary"
"b_Intercept",0.126975321667809,-9.85496946493639,8.84400418243575,0.95,"median","hdci","poisBrms_BUCA_H1_binary_BUCA_H1_binary"
"b_modelFormulamf.ss",0.11877301972112,-10.8126344209901,9.75631033583607,0.95,"median","hdci","poisBrms_BUCA_H1_binary_BUCA_H1_binary"
"b_stepDistgamma",-0.123458357040404,-11.1803649283271,9.33125952550214,0.95,"median","hdci","poisBrms_BUCA_H1_binary_BUCA_H1_binary"
"b_turnDistvonmises",0.138793656485628,-11.5864414769332,8.17426957940697,0.95,"median","hdci","poisBrms_BUCA_H1_binary_BUCA_H1_binary"
"b_availablePerStepScaled",0.276389249965517,0.123473612373269,0.42886128575454,0.95,"median","hdci","poisBrms_BUCA_H1_continuous_BUCA_H1_continuous"
"b_Intercept",1.85277467308253,1.56386483934076,2.14451256599342,0.95,"median","hdci","poisBrms_BUCA_H1_continuous_BUCA_H1_continuous"
"b_modelFormulamf.ss",0.250262927708729,-0.0623519708481089,0.522352545109477,0.95,"median","hdci","poisBrms_BUCA_H1_continuous_BUCA_H1_continuous"
"b_stepDistgamma",-0.378775453911945,-0.650938065402885,-0.0917489467323985,0.95,"median","hdci","poisBrms_BUCA_H1_continuous_BUCA_H1_continuous"
"b_turnDistvonmises",0.111462961380838,-0.201654048917269,0.378762285569779,0.95,"median","hdci","poisBrms_BUCA_H1_continuous_BUCA_H1_continuous"
"b_availablePerStepScaled",0.0146782539908357,-6.53385964904515,7.12572812713517,0.95,"median","hdci","poisBrms_BUFA_H1_binary_BUFA_H1_binary"
"b_Intercept",0.0439379269515844,-9.7895298233811,9.60481155369943,0.95,"median","hdci","poisBrms_BUFA_H1_binary_BUFA_H1_binary"
"b_modelFormulamf.ss",0.238801284668847,-9.17088165152306,10.0415782952756,0.95,"median","hdci","poisBrms_BUFA_H1_binary_BUFA_H1_binary"
"b_stepDistgamma",-0.0313695077447945,-10.8787079405903,11.4371591712962,0.95,"median","hdci","poisBrms_BUFA_H1_binary_BUFA_H1_binary"
"b_turnDistvonmises",0.266269325691036,-10.1882470983785,10.9909726504386,0.95,"median","hdci","poisBrms_BUFA_H1_binary_BUFA_H1_binary"
"b_availablePerStepScaled",0.307522429141502,-0.138234774641132,0.676697430769174,0.95,"median","hdci","poisBrms_BUFA_H1_continuous_BUFA_H1_continuous"
"b_Intercept",1.09318513835544,0.333043564984788,1.91845202097102,0.95,"median","hdci","poisBrms_BUFA_H1_continuous_BUFA_H1_continuous"
"b_modelFormulamf.ss",2.70981846142851,1.85678162746927,3.48801810760334,0.95,"median","hdci","poisBrms_BUFA_H1_continuous_BUFA_H1_continuous"
"b_stepDistgamma",-0.144269216462195,-0.90741901480511,0.647008462001151,0.95,"median","hdci","poisBrms_BUFA_H1_continuous_BUFA_H1_continuous"
"b_turnDistvonmises",0.233078153973342,-0.638072174826899,0.959334799299818,0.95,"median","hdci","poisBrms_BUFA_H1_continuous_BUFA_H1_continuous"
"b_availablePointsScaled",-0.0222921115046069,-0.0290625634879199,-0.015838100994156,0.95,"median","hdci","rsfBrms_OPHA_H1_binary_OPHA_H1_binary"
"b_contourScaled",0.0862529337087928,0.0789883489235581,0.0933940206835415,0.95,"median","hdci","rsfBrms_OPHA_H1_binary_OPHA_H1_binary"
"b_Intercept",2.15578744426073,2.14244801915857,2.17104920243528,0.95,"median","hdci","rsfBrms_OPHA_H1_binary_OPHA_H1_binary"
"b_methodKDEhref",-0.0838183555018276,-0.102358368882711,-0.0668256678135841,0.95,"median","hdci","rsfBrms_OPHA_H1_binary_OPHA_H1_binary"
"b_methodMCP",-0.146883947148728,-0.164528459055441,-0.130644635143537,0.95,"median","hdci","rsfBrms_OPHA_H1_binary_OPHA_H1_binary"
"b_samplingPatternst",0.00539258297840242,-0.00796789560970055,0.0192917737009402,0.95,"median","hdci","rsfBrms_OPHA_H1_binary_OPHA_H1_binary"
"b_availablePointsScaled",0.000540112569782121,-0.0029263457692731,0.00379374750601323,0.95,"median","hdci","rsfBrms_OPHA_H2_binary_OPHA_H2_binary"
"b_contourScaled",-0.0279160108784349,-0.031498071206822,-0.0244989872541848,0.95,"median","hdci","rsfBrms_OPHA_H2_binary_OPHA_H2_binary"
"b_Intercept",0.0501800164834716,0.0434012335785182,0.0574103235042927,0.95,"median","hdci","rsfBrms_OPHA_H2_binary_OPHA_H2_binary"
"b_methodKDEhref",0.0245950879448571,0.0159253104190212,0.0332717127803142,0.95,"median","hdci","rsfBrms_OPHA_H2_binary_OPHA_H2_binary"
"b_methodMCP",-0.15508650321534,-0.163945968304294,-0.146667362507099,0.95,"median","hdci","rsfBrms_OPHA_H2_binary_OPHA_H2_binary"
"b_samplingPatternst",-0.00141033392503119,-0.0083798381042861,0.00677109013199626,0.95,"median","hdci","rsfBrms_OPHA_H2_binary_OPHA_H2_binary"
"b_availablePointsScaled",0.00129877948279642,-0.00131248471953502,0.00398469160631772,0.95,"median","hdci","rsfBrms_OPHA_H1_continuous_OPHA_H1_continuous"
"b_contourScaled",0.0571526877092817,0.0542330808363959,0.0598599146728141,0.95,"median","hdci","rsfBrms_OPHA_H1_continuous_OPHA_H1_continuous"
"b_Intercept",0.234172428567424,0.228463547979202,0.239669968918731,0.95,"median","hdci","rsfBrms_OPHA_H1_continuous_OPHA_H1_continuous"
"b_methodKDEhref",-0.0627757719443628,-0.069840173762917,-0.055921382309387,0.95,"median","hdci","rsfBrms_OPHA_H1_continuous_OPHA_H1_continuous"
"b_methodMCP",0.0512888420248613,0.0446194161007111,0.0585520869117848,0.95,"median","hdci","rsfBrms_OPHA_H1_continuous_OPHA_H1_continuous"
"b_samplingPatternst",0.00150969776006352,-0.00423915507800043,0.00740429175940261,0.95,"median","hdci","rsfBrms_OPHA_H1_continuous_OPHA_H1_continuous"
"b_availablePointsScaled",-0.000350772929253437,-0.00914907997101029,0.00795329434870683,0.95,"median","hdci","rsfBrms_OPHA_H2_continuous_OPHA_H2_continuous"
"b_contourScaled",-0.0387595977718017,-0.0480688940830245,-0.0303762752522294,0.95,"median","hdci","rsfBrms_OPHA_H2_continuous_OPHA_H2_continuous"
"b_Intercept",0.0190916531305702,0.000726107220655659,0.0381113337394289,0.95,"median","hdci","rsfBrms_OPHA_H2_continuous_OPHA_H2_continuous"
"b_methodKDEhref",-0.02446138426763,-0.0420481880960644,-0.00333560861918324,0.95,"median","hdci","rsfBrms_OPHA_H2_continuous_OPHA_H2_continuous"
"b_methodMCP",-0.183820767621944,-0.206286161610767,-0.164164190687019,0.95,"median","hdci","rsfBrms_OPHA_H2_continuous_OPHA_H2_continuous"
"b_samplingPatternst",0.0016590481281406,-0.0144567959548935,0.0218564960851935,0.95,"median","hdci","rsfBrms_OPHA_H2_continuous_OPHA_H2_continuous"
"b_availablePointsScaled",0.00272236014479815,-0.0080558057624236,0.0127272785786694,0.95,"median","hdci","rsfBrms_PYBI_H1_binary_PYBI_H1_binary"
"b_contourScaled",0.0561069282171213,0.0455949252650147,0.0679221259593092,0.95,"median","hdci","rsfBrms_PYBI_H1_binary_PYBI_H1_binary"
"b_Intercept",1.44654639003905,1.42640127190644,1.46868462506494,0.95,"median","hdci","rsfBrms_PYBI_H1_binary_PYBI_H1_binary"
"b_methodKDEhref",0.0213622407596207,-0.00479767374019429,0.0472128614644702,0.95,"median","hdci","rsfBrms_PYBI_H1_binary_PYBI_H1_binary"
"b_methodMCP",0.0160152531174962,-0.00920166073056521,0.0442698659091579,0.95,"median","hdci","rsfBrms_PYBI_H1_binary_PYBI_H1_binary"
"b_samplingPatternst",0.00046052550765561,-0.0217864969745886,0.0211830105317195,0.95,"median","hdci","rsfBrms_PYBI_H1_binary_PYBI_H1_binary"
"b_availablePointsScaled",0.0424055203986611,0.0186576131850048,0.0686954111714107,0.95,"median","hdci","rsfBrms_PYBI_H1_continuous_PYBI_H1_continuous"
"b_contourScaled",0.0986181712847397,0.0735804610847268,0.125835351916711,0.95,"median","hdci","rsfBrms_PYBI_H1_continuous_PYBI_H1_continuous"
"b_Intercept",0.0662366703059491,0.0151438787591076,0.110491218841583,0.95,"median","hdci","rsfBrms_PYBI_H1_continuous_PYBI_H1_continuous"
"b_methodKDEhref",0.145213865824743,0.0860850034488384,0.201226991054906,0.95,"median","hdci","rsfBrms_PYBI_H1_continuous_PYBI_H1_continuous"
"b_methodMCP",1.55640065435211,1.49249310996286,1.62080573407016,0.95,"median","hdci","rsfBrms_PYBI_H1_continuous_PYBI_H1_continuous"
"b_samplingPatternst",-0.0141951022058176,-0.0671589252018721,0.045633499658499,0.95,"median","hdci","rsfBrms_PYBI_H1_continuous_PYBI_H1_continuous"
"b_availablePointsScaled",0.00983749136279797,-0.00125491698041806,0.0206508296784536,0.95,"median","hdci","rsfBrms_BUCA_H1_binary_BUCA_H1_binary"
"b_contourScaled",0.0687226501385287,0.0567434501760727,0.0786688693594034,0.95,"median","hdci","rsfBrms_BUCA_H1_binary_BUCA_H1_binary"
"b_Intercept",1.63484890530595,1.61280086957204,1.65484025103375,0.95,"median","hdci","rsfBrms_BUCA_H1_binary_BUCA_H1_binary"
"b_methodKDEhref",-0.143442238517813,-0.169117766960787,-0.117575698476485,0.95,"median","hdci","rsfBrms_BUCA_H1_binary_BUCA_H1_binary"
"b_methodMCP",-0.174442377303062,-0.201246526840703,-0.148595320328884,0.95,"median","hdci","rsfBrms_BUCA_H1_binary_BUCA_H1_binary"
"b_samplingPatternst",-0.00503808760018514,-0.0277341020734976,0.0164335441787378,0.95,"median","hdci","rsfBrms_BUCA_H1_binary_BUCA_H1_binary"
"b_availablePointsScaled",0.186756670452981,0.151790799053906,0.221603197816118,0.95,"median","hdci","rsfBrms_BUCA_H1_continuous_BUCA_H1_continuous"
"b_contourScaled",0.236510705093988,0.203853538415331,0.273621614443763,0.95,"median","hdci","rsfBrms_BUCA_H1_continuous_BUCA_H1_continuous"
"b_Intercept",2.6324612526462,2.56383787628069,2.71349295516959,0.95,"median","hdci","rsfBrms_BUCA_H1_continuous_BUCA_H1_continuous"
"b_methodKDEhref",-0.702193035804925,-0.795213663614459,-0.615768512757493,0.95,"median","hdci","rsfBrms_BUCA_H1_continuous_BUCA_H1_continuous"
"b_methodMCP",-1.15700827086342,-1.24612089789974,-1.07122789673757,0.95,"median","hdci","rsfBrms_BUCA_H1_continuous_BUCA_H1_continuous"
"b_samplingPatternst",0.0156544820607414,-0.0545624048600612,0.0872631438877227,0.95,"median","hdci","rsfBrms_BUCA_H1_continuous_BUCA_H1_continuous"
"b_availablePointsScaled",0.00732048222752626,-0.00561619872381409,0.0196486366389288,0.95,"median","hdci","rsfBrms_BUFA_H1_binary_BUFA_H1_binary"
"b_contourScaled",0.0263393256875233,0.0118778659343264,0.039301691874078,0.95,"median","hdci","rsfBrms_BUFA_H1_binary_BUFA_H1_binary"
"b_Intercept",2.35125886013978,2.32220789179513,2.37830508498445,0.95,"median","hdci","rsfBrms_BUFA_H1_binary_BUFA_H1_binary"
"b_methodKDEhref",-0.0384469512727551,-0.0738691879106529,-0.00600609358975636,0.95,"median","hdci","rsfBrms_BUFA_H1_binary_BUFA_H1_binary"
"b_methodMCP",0.00396824161815373,-0.02869828602994,0.0367365567502083,0.95,"median","hdci","rsfBrms_BUFA_H1_binary_BUFA_H1_binary"
"b_samplingPatternst",0.00335000928851216,-0.0211417225260578,0.032371562521037,0.95,"median","hdci","rsfBrms_BUFA_H1_binary_BUFA_H1_binary"
"b_availablePointsScaled",0.276514270946861,0.17877357574344,0.397234796862149,0.95,"median","hdci","rsfBrms_BUFA_H1_continuous_BUFA_H1_continuous"
"b_contourScaled",0.580660944410776,0.474000022932912,0.69037467448068,0.95,"median","hdci","rsfBrms_BUFA_H1_continuous_BUFA_H1_continuous"
"b_Intercept",3.33944476482332,3.11352800783401,3.57028096612018,0.95,"median","hdci","rsfBrms_BUFA_H1_continuous_BUFA_H1_continuous"
"b_methodKDEhref",-1.11234772389498,-1.42028211619622,-0.841808133269212,0.95,"median","hdci","rsfBrms_BUFA_H1_continuous_BUFA_H1_continuous"
"b_methodMCP",-3.00296425257095,-3.28425828003272,-2.76033183391379,0.95,"median","hdci","rsfBrms_BUFA_H1_continuous_BUFA_H1_continuous"
"b_samplingPatternst",-0.0277495817790773,-0.220977364410721,0.185637044929698,0.95,"median","hdci","rsfBrms_BUFA_H1_continuous_BUFA_H1_continuous"
"b_availablePerStepScaled",-0.0154130335305712,-0.0483485417201043,0.020297601814832,0.95,"median","hdci","twoStepBrms_OPHA_H1_binary_OPHA_H1_binary"
"b_Intercept",0.583116205100989,0.120301209327879,0.986946379528608,0.95,"median","hdci","twoStepBrms_OPHA_H1_binary_OPHA_H1_binary"
"b_modelFormulamf.ss",0.938359387486433,0.524100875127248,1.39580702637908,0.95,"median","hdci","twoStepBrms_OPHA_H1_binary_OPHA_H1_binary"
"b_stepDistgamma",-0.0669303466299849,-0.136611604791108,0.00155226494105755,0.95,"median","hdci","twoStepBrms_OPHA_H1_binary_OPHA_H1_binary"
"b_turnDistvonmises",-0.00412300630392329,-0.0687491702655448,0.0705421843584673,0.95,"median","hdci","twoStepBrms_OPHA_H1_binary_OPHA_H1_binary"
"b_availablePerStepScaled",0.00193976329364382,-0.0392596933630388,0.0392305511537743,0.95,"median","hdci","twoStepBrms_OPHA_H2_binary_OPHA_H2_binary"
"b_Intercept",0.370158390732044,0.309465833487784,0.429285116796055,0.95,"median","hdci","twoStepBrms_OPHA_H2_binary_OPHA_H2_binary"
"b_stepDistgamma",0.0625283898712386,-0.0229000416000356,0.146445369786071,0.95,"median","hdci","twoStepBrms_OPHA_H2_binary_OPHA_H2_binary"
"b_turnDistvonmises",0.0229446151289084,-0.0629220556356545,0.0941034775066354,0.95,"median","hdci","twoStepBrms_OPHA_H2_binary_OPHA_H2_binary"
"b_availablePerStepScaled",0.131058440720179,-0.00370514649705532,0.263467766172493,0.95,"median","hdci","twoStepBrms_OPHA_H1_continuous_OPHA_H1_continuous"
"b_Intercept",2.37823470555344,2.07175583067456,2.61830063200538,0.95,"median","hdci","twoStepBrms_OPHA_H1_continuous_OPHA_H1_continuous"
"b_modelFormulamf.ss",-0.200702664037597,-0.461292816869477,0.0850187058388288,0.95,"median","hdci","twoStepBrms_OPHA_H1_continuous_OPHA_H1_continuous"
"b_stepDistgamma",-0.387115989604182,-0.652993192431437,-0.115732861088508,0.95,"median","hdci","twoStepBrms_OPHA_H1_continuous_OPHA_H1_continuous"
"b_turnDistvonmises",0.0539304104858062,-0.220000958872735,0.318254017772174,0.95,"median","hdci","twoStepBrms_OPHA_H1_continuous_OPHA_H1_continuous"
"b_availablePerStepScaled",4.35230811450262e-05,-0.0471787065759883,0.0421616785661945,0.95,"median","hdci","twoStepBrms_OPHA_H2_continuous_OPHA_H2_continuous"
"b_Intercept",-0.0253449390245301,-0.181334607567404,0.171682364973562,0.95,"median","hdci","twoStepBrms_OPHA_H2_continuous_OPHA_H2_continuous"
"b_modelFormulamf.ss",0.269588272442806,0.119243883207458,0.426944517335903,0.95,"median","hdci","twoStepBrms_OPHA_H2_continuous_OPHA_H2_continuous"
"b_stepDistgamma",0.0953926213975937,0.0041456818105077,0.189761719863369,0.95,"median","hdci","twoStepBrms_OPHA_H2_continuous_OPHA_H2_continuous"
"b_turnDistvonmises",0.0213424453005974,-0.0861743720146229,0.106763385518397,0.95,"median","hdci","twoStepBrms_OPHA_H2_continuous_OPHA_H2_continuous"
"b_availablePerStepScaled",0.00689201075608555,-0.0323662057502207,0.048875811930145,0.95,"median","hdci","twoStepBrms_PYBI_H1_binary_PYBI_H1_binary"
"b_Intercept",0.195069073939078,-0.0362333835142182,0.423731728847146,0.95,"median","hdci","twoStepBrms_PYBI_H1_binary_PYBI_H1_binary"
"b_modelFormulamf.ss",0.898398466425858,0.679398425461035,1.12596119182835,0.95,"median","hdci","twoStepBrms_PYBI_H1_binary_PYBI_H1_binary"
"b_stepDistgamma",-0.0273821488032804,-0.12238992813373,0.0506310074374844,0.95,"median","hdci","twoStepBrms_PYBI_H1_binary_PYBI_H1_binary"
"b_turnDistvonmises",0.0155797492730343,-0.0769871211658095,0.0979356690852653,0.95,"median","hdci","twoStepBrms_PYBI_H1_binary_PYBI_H1_binary"
"b_availablePerStepScaled",0.0541975394880954,-0.185191939071671,0.314900748059631,0.95,"median","hdci","twoStepBrms_PYBI_H1_continuous_PYBI_H1_continuous"
"b_Intercept",1.70790612665766,1.28689890061272,2.173817024416,0.95,"median","hdci","twoStepBrms_PYBI_H1_continuous_PYBI_H1_continuous"
"b_modelFormulamf.ss",0.773811566871847,0.250013020948089,1.2738571935469,0.95,"median","hdci","twoStepBrms_PYBI_H1_continuous_PYBI_H1_continuous"
"b_stepDistgamma",-0.16898070449172,-0.638492476495103,0.360372456174327,0.95,"median","hdci","twoStepBrms_PYBI_H1_continuous_PYBI_H1_continuous"
"b_turnDistvonmises",0.161351237224624,-0.32487214199096,0.631443468969314,0.95,"median","hdci","twoStepBrms_PYBI_H1_continuous_PYBI_H1_continuous"
"b_availablePerStepScaled",0.0978744279164778,-0.00197336300690125,0.194061957009968,0.95,"median","hdci","twoStepBrms_BUCA_H1_binary_BUCA_H1_binary"
"b_Intercept",-0.768717293889094,-1.12480141665873,-0.41367558795978,0.95,"median","hdci","twoStepBrms_BUCA_H1_binary_BUCA_H1_binary"
"b_modelFormulamf.ss",2.14098621882462,1.81862743014938,2.48874001812293,0.95,"median","hdci","twoStepBrms_BUCA_H1_binary_BUCA_H1_binary"
"b_stepDistgamma",-0.0615744572603682,-0.24971330325771,0.126320430632891,0.95,"median","hdci","twoStepBrms_BUCA_H1_binary_BUCA_H1_binary"
"b_turnDistvonmises",-0.0320182977237417,-0.212532108541546,0.165057156185347,0.95,"median","hdci","twoStepBrms_BUCA_H1_binary_BUCA_H1_binary"
"b_availablePerStepScaled",0.201147986950311,0.121430569355551,0.291646449829803,0.95,"median","hdci","twoStepBrms_BUCA_H1_continuous_BUCA_H1_continuous"
"b_Intercept",1.17349837352134,0.936729847821166,1.42665699882353,0.95,"median","hdci","twoStepBrms_BUCA_H1_continuous_BUCA_H1_continuous"
"b_modelFormulamf.ss",-0.180603268731924,-0.419010145062486,0.0570298231564515,0.95,"median","hdci","twoStepBrms_BUCA_H1_continuous_BUCA_H1_continuous"
"b_stepDistgamma",0.0558197304028264,-0.0915821982498841,0.203711291849416,0.95,"median","hdci","twoStepBrms_BUCA_H1_continuous_BUCA_H1_continuous"
"b_turnDistvonmises",0.0733301625813059,-0.0740268200668327,0.21068279116762,0.95,"median","hdci","twoStepBrms_BUCA_H1_continuous_BUCA_H1_continuous"
"b_availablePerStepScaled",-0.0460323131678281,-0.125456779994444,0.0513870498137173,0.95,"median","hdci","twoStepBrms_BUFA_H1_binary_BUFA_H1_binary"
"b_Intercept",0.274692741893581,-0.172831301006737,0.71613709360598,0.95,"median","hdci","twoStepBrms_BUFA_H1_binary_BUFA_H1_binary"
"b_modelFormulamf.ss",1.6926037438377,1.29291738010156,2.17624939466561,0.95,"median","hdci","twoStepBrms_BUFA_H1_binary_BUFA_H1_binary"
"b_stepDistgamma",-0.0146202856609372,-0.190464111346093,0.167026971481482,0.95,"median","hdci","twoStepBrms_BUFA_H1_binary_BUFA_H1_binary"
"b_turnDistvonmises",-0.0418879845247867,-0.21773063232303,0.122588326528702,0.95,"median","hdci","twoStepBrms_BUFA_H1_binary_BUFA_H1_binary"
"b_availablePerStepScaled",0.547718588038887,0.085560380094421,1.00313267805018,0.95,"median","hdci","twoStepBrms_BUFA_H1_continuous_BUFA_H1_continuous"
"b_Intercept",0.975016993292653,0.00155081056627152,1.8448056388005,0.95,"median","hdci","twoStepBrms_BUFA_H1_continuous_BUFA_H1_continuous"
"b_modelFormulamf.ss",2.06044761628055,1.15957939064838,3.05164991975577,0.95,"median","hdci","twoStepBrms_BUFA_H1_continuous_BUFA_H1_continuous"
"b_stepDistgamma",-0.0558915590839899,-0.922605897206297,0.858680714981534,0.95,"median","hdci","twoStepBrms_BUFA_H1_continuous_BUFA_H1_continuous"
"b_turnDistvonmises",0.0757757168154097,-0.789976103007985,0.987367649662522,0.95,"median","hdci","twoStepBrms_BUFA_H1_continuous_BUFA_H1_continuous"
