".variable",".value",".lower",".upper",".width",".point",".interval","model"
"b_availablePerStepScaled",-0.63032410356775,-0.924077322741628,-0.357975913750189,0.95,"median","hdci","ssfBrms_OPHA_H1_binary_OPHA_H1_binary"
"b_Intercept",0.0649562799675354,-0.470268616898827,0.606855812852663,0.95,"median","hdci","ssfBrms_OPHA_H1_binary_OPHA_H1_binary"
"b_modelFormulamf.ss",0.0865090776270963,-0.478011506169301,0.602820354103377,0.95,"median","hdci","ssfBrms_OPHA_H1_binary_OPHA_H1_binary"
"b_stepDistgamma",-0.880469054403591,-1.43751896777022,-0.310122380742777,0.95,"median","hdci","ssfBrms_OPHA_H1_binary_OPHA_H1_binary"
"b_turnDistvonmises",-0.139375587826796,-0.658579786479389,0.422521640476613,0.95,"median","hdci","ssfBrms_OPHA_H1_binary_OPHA_H1_binary"
"b_availablePerStepScaled",-0.259956508583847,-0.616901315497213,0.0808892335292869,0.95,"median","hdci","ssfBrms_OPHA_H2_binary_OPHA_H2_binary"
"b_Intercept",-1.98176330040444,-2.90092038771011,-1.40076339382558,0.95,"median","hdci","ssfBrms_OPHA_H2_binary_OPHA_H2_binary"
"b_modelFormulamf.ss",1.12168707583451,0.521755391057623,1.94827165278435,0.95,"median","hdci","ssfBrms_OPHA_H2_binary_OPHA_H2_binary"
"b_stepDistgamma",0.196437607060834,-0.51579396354124,0.969734740485316,0.95,"median","hdci","ssfBrms_OPHA_H2_binary_OPHA_H2_binary"
"b_turnDistvonmises",0.338042717708457,-0.40457032165625,1.06986123308606,0.95,"median","hdci","ssfBrms_OPHA_H2_binary_OPHA_H2_binary"
"b_availablePerStepScaled",0.00982772791575691,-0.021401146708056,0.0420111941672366,0.95,"median","hdci","ssfBrms_OPHA_H1_continuous_OPHA_H1_continuous"
"b_Intercept",0.591992394187559,0.512310302870784,0.681482848382563,0.95,"median","hdci","ssfBrms_OPHA_H1_continuous_OPHA_H1_continuous"
"b_modelFormulamf.ss",-0.0943410279562635,-0.165057607276124,-0.0171405448513794,0.95,"median","hdci","ssfBrms_OPHA_H1_continuous_OPHA_H1_continuous"
"b_stepDistgamma",-0.0286223354861146,-0.0959136578366964,0.0358947563316186,0.95,"median","hdci","ssfBrms_OPHA_H1_continuous_OPHA_H1_continuous"
"b_turnDistvonmises",0.00681653202672601,-0.0555715257353387,0.0797492484376686,0.95,"median","hdci","ssfBrms_OPHA_H1_continuous_OPHA_H1_continuous"
"b_availablePerStepScaled",0.508272760414409,0.23572728096246,0.762087513869809,0.95,"median","hdci","ssfBrms_OPHA_H2_continuous_OPHA_H2_continuous"
"b_Intercept",0.511414584314635,0.309980983425876,0.682160542764603,0.95,"median","hdci","ssfBrms_OPHA_H2_continuous_OPHA_H2_continuous"
"b_modelFormulamf.ss",-0.0379396402435248,-0.121800750455857,0.0458804863235517,0.95,"median","hdci","ssfBrms_OPHA_H2_continuous_OPHA_H2_continuous"
"b_stepDistgamma",4.2851750709044,1.76883292390928,6.54606220544277,0.95,"median","hdci","ssfBrms_OPHA_H2_continuous_OPHA_H2_continuous"
"b_turnDistvonmises",0.0903117459474392,0.0192358923896323,0.181797573563568,0.95,"median","hdci","ssfBrms_OPHA_H2_continuous_OPHA_H2_continuous"
"b_availablePerStepScaled",-0.210290446113086,-0.906272069710338,0.470042899436661,0.95,"median","hdci","ssfBrms_PYBI_H1_binary_PYBI_H1_binary"
"b_Intercept",-2.00688207398202,-3.45482287441818,-0.805156483890528,0.95,"median","hdci","ssfBrms_PYBI_H1_binary_PYBI_H1_binary"
"b_modelFormulamf.ss",0.274098202236033,-1.33829667448791,1.60037096531371,0.95,"median","hdci","ssfBrms_PYBI_H1_binary_PYBI_H1_binary"
"b_stepDistgamma",0.376676861270266,-1.04556717814748,1.76357163099256,0.95,"median","hdci","ssfBrms_PYBI_H1_binary_PYBI_H1_binary"
"b_turnDistvonmises",0.326732901660999,-0.934612306526542,1.73467768647926,0.95,"median","hdci","ssfBrms_PYBI_H1_binary_PYBI_H1_binary"
"b_availablePerStepScaled",-0.000681656613873604,-0.051711181808222,0.0477290931148275,0.95,"median","hdci","ssfBrms_PYBI_H1_continuous_PYBI_H1_continuous"
"b_Intercept",0.165717059035912,0.0735787424017535,0.256951482883108,0.95,"median","hdci","ssfBrms_PYBI_H1_continuous_PYBI_H1_continuous"
"b_modelFormulamf.ss",0.0696054303300548,-0.0398820394516344,0.171270155412044,0.95,"median","hdci","ssfBrms_PYBI_H1_continuous_PYBI_H1_continuous"
"b_stepDistgamma",0.0802992786053487,-0.0218623915600923,0.175138938115782,0.95,"median","hdci","ssfBrms_PYBI_H1_continuous_PYBI_H1_continuous"
"b_turnDistvonmises",-0.0470035264041614,-0.151971697795579,0.0483629914233979,0.95,"median","hdci","ssfBrms_PYBI_H1_continuous_PYBI_H1_continuous"
"b_availablePerStepScaled",-0.0142158447519472,-0.126147157358457,0.0937137440663549,0.95,"median","hdci","ssfBrms_BUCA_H1_binary_BUCA_H1_binary"
"b_Intercept",3.25436137223904,2.53876963964497,4.00211766032393,0.95,"median","hdci","ssfBrms_BUCA_H1_binary_BUCA_H1_binary"
"b_modelFormulamf.ss",-1.65410335430565,-2.38522608131499,-0.89584663690496,0.95,"median","hdci","ssfBrms_BUCA_H1_binary_BUCA_H1_binary"
"b_stepDistgamma",0.00365989254381083,-0.256640594818925,0.200995467706824,0.95,"median","hdci","ssfBrms_BUCA_H1_binary_BUCA_H1_binary"
"b_turnDistvonmises",0.0212244111195667,-0.201639235906802,0.253909848176394,0.95,"median","hdci","ssfBrms_BUCA_H1_binary_BUCA_H1_binary"
"b_availablePerStepScaled",0.323919831967161,-0.132117107035065,0.844153624121539,0.95,"median","hdci","ssfBrms_BUCA_H1_continuous_BUCA_H1_continuous"
"b_Intercept",12.1387474730332,8.56508228054605,15.9198281015052,0.95,"median","hdci","ssfBrms_BUCA_H1_continuous_BUCA_H1_continuous"
"b_modelFormulamf.ss",-8.1572729562664,-12.0287069531618,-4.55206596499994,0.95,"median","hdci","ssfBrms_BUCA_H1_continuous_BUCA_H1_continuous"
"b_stepDistgamma",-0.24735924218657,-1.15089283789913,0.7374611443121,0.95,"median","hdci","ssfBrms_BUCA_H1_continuous_BUCA_H1_continuous"
"b_turnDistvonmises",0.303163218290662,-0.683552614160081,1.30385456220897,0.95,"median","hdci","ssfBrms_BUCA_H1_continuous_BUCA_H1_continuous"
"b_availablePerStepScaled",-0.0531684087966782,-0.107987733294579,-0.00186155585344268,0.95,"median","hdci","ssfBrms_BUFA_H1_binary_BUFA_H1_binary"
"b_Intercept",2.31786267813009,2.21782916395829,2.41873379565371,0.95,"median","hdci","ssfBrms_BUFA_H1_binary_BUFA_H1_binary"
"b_modelFormulamf.ss",-0.484460208996857,-0.584275637284457,-0.375707196253344,0.95,"median","hdci","ssfBrms_BUFA_H1_binary_BUFA_H1_binary"
"b_stepDistgamma",0.011181728032568,-0.0902340255453867,0.131359911982497,0.95,"median","hdci","ssfBrms_BUFA_H1_binary_BUFA_H1_binary"
"b_turnDistvonmises",0.00114843543611461,-0.108458876603533,0.112542149976332,0.95,"median","hdci","ssfBrms_BUFA_H1_binary_BUFA_H1_binary"
"b_availablePerStepScaled",0.540260642289295,0.0936355941803217,0.95379911170453,0.95,"median","hdci","ssfBrms_BUFA_H1_continuous_BUFA_H1_continuous"
"b_Intercept",3.42353515388618,2.63672771064168,4.22153582728328,0.95,"median","hdci","ssfBrms_BUFA_H1_continuous_BUFA_H1_continuous"
"b_modelFormulamf.ss",-0.34806672897186,-1.01447994728619,0.438349209131001,0.95,"median","hdci","ssfBrms_BUFA_H1_continuous_BUFA_H1_continuous"
"b_stepDistgamma",-0.200801288708306,-0.97135488907184,0.567634164656143,0.95,"median","hdci","ssfBrms_BUFA_H1_continuous_BUFA_H1_continuous"
"b_turnDistvonmises",0.176488110458471,-0.524957999076577,0.947354481989963,0.95,"median","hdci","ssfBrms_BUFA_H1_continuous_BUFA_H1_continuous"
"b_areaMethodKDEhref",0.177127929400043,0.149202948986234,0.208848529308034,0.95,"median","hdci","areaBasedBrms_OPHA_H1_binary_OPHA_H1_binary"
"b_areaMethodMCP",0.775430955439397,0.748486972018838,0.807027734525572,0.95,"median","hdci","areaBasedBrms_OPHA_H1_binary_OPHA_H1_binary"
"b_availablePointsScaled",-0.0255872884174017,-0.0375516342861297,-0.0120647291601011,0.95,"median","hdci","areaBasedBrms_OPHA_H1_binary_OPHA_H1_binary"
"b_contourScaled",-0.142698829509856,-0.15532549414891,-0.129590915464445,0.95,"median","hdci","areaBasedBrms_OPHA_H1_binary_OPHA_H1_binary"
"b_Intercept",0.902463599185274,0.87230338584972,0.929576459761581,0.95,"median","hdci","areaBasedBrms_OPHA_H1_binary_OPHA_H1_binary"
"b_samplingPatternst",0.010124018117721,-0.0158219478421921,0.0347291126652446,0.95,"median","hdci","areaBasedBrms_OPHA_H1_binary_OPHA_H1_binary"
"b_testrandomisation",1.8051544500908e-05,-0.0247007776642987,0.0253319315102542,0.95,"median","hdci","areaBasedBrms_OPHA_H1_binary_OPHA_H1_binary"
"b_areaMethodKDEhref",0.209539374662623,0.182718261977168,0.240904547755365,0.95,"median","hdci","areaBasedBrms_OPHA_H2_binary_OPHA_H2_binary"
"b_areaMethodMCP",0.858167691749995,0.826357177823701,0.886798663212586,0.95,"median","hdci","areaBasedBrms_OPHA_H2_binary_OPHA_H2_binary"
"b_availablePointsScaled",-0.000778020162619194,-0.0138645791034006,0.0103217407638034,0.95,"median","hdci","areaBasedBrms_OPHA_H2_binary_OPHA_H2_binary"
"b_contourScaled",-0.182212011843571,-0.193719280666342,-0.168096690431929,0.95,"median","hdci","areaBasedBrms_OPHA_H2_binary_OPHA_H2_binary"
"b_Intercept",-0.798896986928198,-0.826398366822285,-0.769720490475411,0.95,"median","hdci","areaBasedBrms_OPHA_H2_binary_OPHA_H2_binary"
"b_samplingPatternst",-0.0172208858141748,-0.0373571444942138,0.0107722281589328,0.95,"median","hdci","areaBasedBrms_OPHA_H2_binary_OPHA_H2_binary"
"b_testrandomisation",0.0302133582699507,0.00649453678975382,0.0555204116446762,0.95,"median","hdci","areaBasedBrms_OPHA_H2_binary_OPHA_H2_binary"
"b_areaMethodKDEhref",0.547334087779963,0.478203852082236,0.618733121286679,0.95,"median","hdci","areaBasedBrms_PYBI_H1_binary_PYBI_H1_binary"
"b_areaMethodMCP",0.850696565912798,0.782970147659379,0.924532966325632,0.95,"median","hdci","areaBasedBrms_PYBI_H1_binary_PYBI_H1_binary"
"b_availablePointsScaled",-0.00672043232508767,-0.0388620284978708,0.0196669885649863,0.95,"median","hdci","areaBasedBrms_PYBI_H1_binary_PYBI_H1_binary"
"b_contourScaled",-0.00666714738790154,-0.0339337718374607,0.0189299770928073,0.95,"median","hdci","areaBasedBrms_PYBI_H1_binary_PYBI_H1_binary"
"b_Intercept",-0.62883645854514,-0.694261426056326,-0.566537514700253,0.95,"median","hdci","areaBasedBrms_PYBI_H1_binary_PYBI_H1_binary"
"b_samplingPatternst",0.0117796431907275,-0.0367099397216467,0.0710469214319035,0.95,"median","hdci","areaBasedBrms_PYBI_H1_binary_PYBI_H1_binary"
"b_testrandomisation",-0.0905287757155162,-0.146375376762743,-0.0392903120928368,0.95,"median","hdci","areaBasedBrms_PYBI_H1_binary_PYBI_H1_binary"
"b_areaMethodKDEhref",-0.242533664130384,-0.433141287631483,-0.0693533897083724,0.95,"median","hdci","areaBasedBrms_BUCA_H1_binary_BUCA_H1_binary"
"b_areaMethodMCP",-1.4890096738133,-1.68199596362477,-1.31318916708142,0.95,"median","hdci","areaBasedBrms_BUCA_H1_binary_BUCA_H1_binary"
"b_availablePointsScaled",0.0151605614332873,-0.055022971850013,0.0886042455159459,0.95,"median","hdci","areaBasedBrms_BUCA_H1_binary_BUCA_H1_binary"
"b_contourScaled",0.360537190132502,0.292191273881017,0.433816775733051,0.95,"median","hdci","areaBasedBrms_BUCA_H1_binary_BUCA_H1_binary"
"b_Intercept",6.25679315730678,6.08157615435955,6.4063326383698,0.95,"median","hdci","areaBasedBrms_BUCA_H1_binary_BUCA_H1_binary"
"b_samplingPatternst",-0.00369332081820245,-0.152326098420686,0.161643807065352,0.95,"median","hdci","areaBasedBrms_BUCA_H1_binary_BUCA_H1_binary"
"b_testrandomisation",-3.81111739225723,-3.96230590998156,-3.65323866524692,0.95,"median","hdci","areaBasedBrms_BUCA_H1_binary_BUCA_H1_binary"
"b_areaMethodKDEhref",2.83627946155536,2.00328946309742,3.50173448207999,0.95,"median","hdci","areaBasedBrms_BUFA_H1_binary_BUFA_H1_binary"
"b_areaMethodMCP",-1.04046942704501,-1.71683232576281,-0.296079547407825,0.95,"median","hdci","areaBasedBrms_BUFA_H1_binary_BUFA_H1_binary"
"b_availablePointsScaled",-0.0517272181320361,-0.34300601194177,0.246602874387555,0.95,"median","hdci","areaBasedBrms_BUFA_H1_binary_BUFA_H1_binary"
"b_contourScaled",-0.0350621332731499,-0.345882057651739,0.279540463956423,0.95,"median","hdci","areaBasedBrms_BUFA_H1_binary_BUFA_H1_binary"
"b_Intercept",11.6700033602632,11.0861450273011,12.4058034929388,0.95,"median","hdci","areaBasedBrms_BUFA_H1_binary_BUFA_H1_binary"
"b_samplingPatternst",-0.55487134919321,-1.11092278365783,0.104435845189308,0.95,"median","hdci","areaBasedBrms_BUFA_H1_binary_BUFA_H1_binary"
"b_testrandomisation",-9.58488191169032,-10.1495572152886,-8.98892685862084,0.95,"median","hdci","areaBasedBrms_BUFA_H1_binary_BUFA_H1_binary"
"b_availablePerStepScaled",0.0481078057924818,-2.69492892503731,2.28741440911349,0.95,"median","hdci","poisBrms_OPHA_H1_binary_OPHA_H1_binary"
"b_Intercept",0.426618673175053,-4.16783449189476,4.67130666891824,0.95,"median","hdci","poisBrms_OPHA_H1_binary_OPHA_H1_binary"
"b_modelFormulamf.ss",0.483464029667423,-3.37046776332598,4.88178232733113,0.95,"median","hdci","poisBrms_OPHA_H1_binary_OPHA_H1_binary"
"b_stepDistgamma",-0.0946859154920202,-4.40395121873781,4.27996995798485,0.95,"median","hdci","poisBrms_OPHA_H1_binary_OPHA_H1_binary"
"b_turnDistvonmises",-0.0378193788562724,-4.13230886063408,4.36230377824589,0.95,"median","hdci","poisBrms_OPHA_H1_binary_OPHA_H1_binary"
"b_availablePerStepScaled",-0.0744316021832675,-2.61689023832187,2.43688137756417,0.95,"median","hdci","poisBrms_OPHA_H2_binary_OPHA_H2_binary"
"b_Intercept",-0.418613774162681,-4.46500039306315,4.36159033319749,0.95,"median","hdci","poisBrms_OPHA_H2_binary_OPHA_H2_binary"
"b_modelFormulamf.ss",0.393107519389376,-3.56504870646425,4.52864147775249,0.95,"median","hdci","poisBrms_OPHA_H2_binary_OPHA_H2_binary"
"b_stepDistgamma",0.158415095190869,-4.2865017685008,4.59581213626874,0.95,"median","hdci","poisBrms_OPHA_H2_binary_OPHA_H2_binary"
"b_turnDistvonmises",0.195979544966385,-4.43872790052167,4.32548664927434,0.95,"median","hdci","poisBrms_OPHA_H2_binary_OPHA_H2_binary"
"b_availablePerStepScaled",0.143363543938033,-0.0046113446845027,0.267684683258904,0.95,"median","hdci","poisBrms_OPHA_H1_continuous_OPHA_H1_continuous"
"b_Intercept",2.30667249744081,2.04648391153772,2.55292923737206,0.95,"median","hdci","poisBrms_OPHA_H1_continuous_OPHA_H1_continuous"
"b_modelFormulamf.ss",-0.143466271725353,-0.383062727344876,0.119051720817176,0.95,"median","hdci","poisBrms_OPHA_H1_continuous_OPHA_H1_continuous"
"b_stepDistgamma",-0.29770753924607,-0.551970359024833,-0.0295072467003389,0.95,"median","hdci","poisBrms_OPHA_H1_continuous_OPHA_H1_continuous"
"b_turnDistvonmises",-0.0347198919914456,-0.278178955967776,0.231169961733139,0.95,"median","hdci","poisBrms_OPHA_H1_continuous_OPHA_H1_continuous"
"b_availablePerStepScaled",-0.00506717714703279,-0.0347941618846352,0.025778836749955,0.95,"median","hdci","poisBrms_OPHA_H2_continuous_OPHA_H2_continuous"
"b_Intercept",0.0397754736831669,-0.0213970961953958,0.097806087609149,0.95,"median","hdci","poisBrms_OPHA_H2_continuous_OPHA_H2_continuous"
"b_modelFormulamf.ss",0.219749580715027,0.162204427799031,0.279135819830163,0.95,"median","hdci","poisBrms_OPHA_H2_continuous_OPHA_H2_continuous"
"b_stepDistgamma",0.250519900711606,0.184387063275617,0.310069283346691,0.95,"median","hdci","poisBrms_OPHA_H2_continuous_OPHA_H2_continuous"
"b_turnDistvonmises",0.0202761353383648,-0.0452189875429433,0.0760476624606952,0.95,"median","hdci","poisBrms_OPHA_H2_continuous_OPHA_H2_continuous"
"b_availablePerStepScaled",-0.121389401695959,-5.67627890834191,5.51372087488711,0.95,"median","hdci","poisBrms_PYBI_H1_binary_PYBI_H1_binary"
"b_Intercept",-0.0161738878910014,-7.98779990618433,8.03880310310602,0.95,"median","hdci","poisBrms_PYBI_H1_binary_PYBI_H1_binary"
"b_modelFormulamf.ss",0.277604664600033,-8.28777533072099,8.86052650412236,0.95,"median","hdci","poisBrms_PYBI_H1_binary_PYBI_H1_binary"
"b_stepDistgamma",-0.228062556963076,-8.33084769933501,8.8189424247643,0.95,"median","hdci","poisBrms_PYBI_H1_binary_PYBI_H1_binary"
"b_turnDistvonmises",0.0373443079552034,-8.58211207439902,9.59006609719024,0.95,"median","hdci","poisBrms_PYBI_H1_binary_PYBI_H1_binary"
"b_availablePerStepScaled",0.176246525575425,-0.0696536309734471,0.453813206128006,0.95,"median","hdci","poisBrms_PYBI_H1_continuous_PYBI_H1_continuous"
"b_Intercept",2.40068706138658,1.96024781286112,2.91108517655119,0.95,"median","hdci","poisBrms_PYBI_H1_continuous_PYBI_H1_continuous"
"b_modelFormulamf.ss",-0.141556260755282,-0.619756773430518,0.317734164519951,0.95,"median","hdci","poisBrms_PYBI_H1_continuous_PYBI_H1_continuous"
"b_stepDistgamma",-0.200838070467375,-0.730098217854863,0.23690443409806,0.95,"median","hdci","poisBrms_PYBI_H1_continuous_PYBI_H1_continuous"
"b_turnDistvonmises",0.0515015618361454,-0.392654718558531,0.486896425814297,0.95,"median","hdci","poisBrms_PYBI_H1_continuous_PYBI_H1_continuous"
"b_availablePerStepScaled",-0.00629127162087292,-7.07173909455414,6.41002925757318,0.95,"median","hdci","poisBrms_BUCA_H1_binary_BUCA_H1_binary"
"b_Intercept",-0.182121114843362,-9.23616505595001,9.74600379468972,0.95,"median","hdci","poisBrms_BUCA_H1_binary_BUCA_H1_binary"
"b_modelFormulamf.ss",0.287122998343929,-9.56318278216756,10.4927173217953,0.95,"median","hdci","poisBrms_BUCA_H1_binary_BUCA_H1_binary"
"b_stepDistgamma",0.0448819722185505,-10.9761733809122,9.31140527008474,0.95,"median","hdci","poisBrms_BUCA_H1_binary_BUCA_H1_binary"
"b_turnDistvonmises",0.0327054089274949,-12.503432304766,11.1460006657991,0.95,"median","hdci","poisBrms_BUCA_H1_binary_BUCA_H1_binary"
"b_availablePerStepScaled",0.273136721939018,0.125067052148649,0.422604658549236,0.95,"median","hdci","poisBrms_BUCA_H1_continuous_BUCA_H1_continuous"
"b_Intercept",1.86499323458888,1.57706352056334,2.13885843684499,0.95,"median","hdci","poisBrms_BUCA_H1_continuous_BUCA_H1_continuous"
"b_modelFormulamf.ss",0.233921622892485,-0.0053949143120506,0.498357391356834,0.95,"median","hdci","poisBrms_BUCA_H1_continuous_BUCA_H1_continuous"
"b_stepDistgamma",-0.378027580341096,-0.650840430597224,-0.120995764494253,0.95,"median","hdci","poisBrms_BUCA_H1_continuous_BUCA_H1_continuous"
"b_turnDistvonmises",0.094982220731116,-0.174850144860768,0.361978982992679,0.95,"median","hdci","poisBrms_BUCA_H1_continuous_BUCA_H1_continuous"
"b_availablePerStepScaled",-0.243205505289839,-6.91373419937498,6.44546847995748,0.95,"median","hdci","poisBrms_BUFA_H1_binary_BUFA_H1_binary"
"b_Intercept",-0.252162039916354,-11.2275944430594,9.10100371572119,0.95,"median","hdci","poisBrms_BUFA_H1_binary_BUFA_H1_binary"
"b_modelFormulamf.ss",0.396765644640971,-10.3197774267863,12.3392080166555,0.95,"median","hdci","poisBrms_BUFA_H1_binary_BUFA_H1_binary"
"b_stepDistgamma",0.26968122973536,-11.3111686523483,10.2428855753848,0.95,"median","hdci","poisBrms_BUFA_H1_binary_BUFA_H1_binary"
"b_turnDistvonmises",0.115308197444482,-12.2385378281318,9.82290309277468,0.95,"median","hdci","poisBrms_BUFA_H1_binary_BUFA_H1_binary"
"b_availablePerStepScaled",0.301798172699201,-0.0731781168730914,0.670457944527585,0.95,"median","hdci","poisBrms_BUFA_H1_continuous_BUFA_H1_continuous"
"b_Intercept",1.09299997322833,0.294351215884822,1.92083459304483,0.95,"median","hdci","poisBrms_BUFA_H1_continuous_BUFA_H1_continuous"
"b_modelFormulamf.ss",2.69477508307191,1.74402372133537,3.43300590520338,0.95,"median","hdci","poisBrms_BUFA_H1_continuous_BUFA_H1_continuous"
"b_stepDistgamma",-0.139221742561939,-0.812799948871746,0.640923287445754,0.95,"median","hdci","poisBrms_BUFA_H1_continuous_BUFA_H1_continuous"
"b_turnDistvonmises",0.254216586157583,-0.593965615176245,1.05267825890515,0.95,"median","hdci","poisBrms_BUFA_H1_continuous_BUFA_H1_continuous"
"b_availablePointsScaled",-0.0188377324772598,-0.0222854851473573,-0.0154115992676739,0.95,"median","hdci","rsfBrms_OPHA_H1_binary_OPHA_H1_binary"
"b_contourScaled",0.0835847313710315,0.0796758321365618,0.0872583816013923,0.95,"median","hdci","rsfBrms_OPHA_H1_binary_OPHA_H1_binary"
"b_Intercept",2.14774326204232,2.14037419381368,2.15574970107235,0.95,"median","hdci","rsfBrms_OPHA_H1_binary_OPHA_H1_binary"
"b_methodKDEhref",-0.0807831768575777,-0.0896532273832112,-0.0713232128712532,0.95,"median","hdci","rsfBrms_OPHA_H1_binary_OPHA_H1_binary"
"b_methodMCP",-0.135959098968186,-0.145589849074946,-0.126332668166763,0.95,"median","hdci","rsfBrms_OPHA_H1_binary_OPHA_H1_binary"
"b_samplingPatternst",0.00318377274115992,-0.00382719083171107,0.0117522228953653,0.95,"median","hdci","rsfBrms_OPHA_H1_binary_OPHA_H1_binary"
"b_availablePointsScaled",0.000482200437808708,-0.00196481488826029,0.00300846673279691,0.95,"median","hdci","rsfBrms_OPHA_H2_binary_OPHA_H2_binary"
"b_contourScaled",-0.0271718754373216,-0.0297843159818961,-0.0248745186414954,0.95,"median","hdci","rsfBrms_OPHA_H2_binary_OPHA_H2_binary"
"b_Intercept",0.0499668260719195,0.0452714237718022,0.0544962707826639,0.95,"median","hdci","rsfBrms_OPHA_H2_binary_OPHA_H2_binary"
"b_methodKDEhref",0.0244602531800519,0.0188277828123655,0.0309500823070021,0.95,"median","hdci","rsfBrms_OPHA_H2_binary_OPHA_H2_binary"
"b_methodMCP",-0.15328594182982,-0.159248563303439,-0.147617516332352,0.95,"median","hdci","rsfBrms_OPHA_H2_binary_OPHA_H2_binary"
"b_samplingPatternst",-0.000867380998687874,-0.00576329877689355,0.00391356812674279,0.95,"median","hdci","rsfBrms_OPHA_H2_binary_OPHA_H2_binary"
"b_availablePointsScaled",0.00091251706952342,-0.000764164738982659,0.00252399201837572,0.95,"median","hdci","rsfBrms_OPHA_H1_continuous_OPHA_H1_continuous"
"b_contourScaled",0.056949706286611,0.0551776279980796,0.0585914056687532,0.95,"median","hdci","rsfBrms_OPHA_H1_continuous_OPHA_H1_continuous"
"b_Intercept",0.233928975000398,0.230257038729623,0.237435356149178,0.95,"median","hdci","rsfBrms_OPHA_H1_continuous_OPHA_H1_continuous"
"b_methodKDEhref",-0.0626282508151134,-0.0665704136081404,-0.0579226222001004,0.95,"median","hdci","rsfBrms_OPHA_H1_continuous_OPHA_H1_continuous"
"b_methodMCP",0.0522397646437016,0.0480271507612775,0.0572454214866676,0.95,"median","hdci","rsfBrms_OPHA_H1_continuous_OPHA_H1_continuous"
"b_samplingPatternst",0.00135038724124597,-0.00255905478543853,0.00466424586530656,0.95,"median","hdci","rsfBrms_OPHA_H1_continuous_OPHA_H1_continuous"
"b_availablePointsScaled",-0.000130055508944249,-0.00144330854708018,0.00102599895647641,0.95,"median","hdci","rsfBrms_OPHA_H2_continuous_OPHA_H2_continuous"
"b_contourScaled",-0.0318129983622483,-0.0332059530428355,-0.0306906802086239,0.95,"median","hdci","rsfBrms_OPHA_H2_continuous_OPHA_H2_continuous"
"b_Intercept",0.0192973006837251,0.0168080790732409,0.0216516981719265,0.95,"median","hdci","rsfBrms_OPHA_H2_continuous_OPHA_H2_continuous"
"b_methodKDEhref",-0.0212183918939143,-0.0244210632857033,-0.0185712133421266,0.95,"median","hdci","rsfBrms_OPHA_H2_continuous_OPHA_H2_continuous"
"b_methodMCP",-0.151039217949321,-0.154346031347925,-0.147889711119627,0.95,"median","hdci","rsfBrms_OPHA_H2_continuous_OPHA_H2_continuous"
"b_samplingPatternst",0.000753839548606614,-0.00212421109121759,0.00316697296059038,0.95,"median","hdci","rsfBrms_OPHA_H2_continuous_OPHA_H2_continuous"
"b_availablePointsScaled",0.00280899916878017,-0.00640475074630415,0.010719269232112,0.95,"median","hdci","rsfBrms_PYBI_H1_binary_PYBI_H1_binary"
"b_contourScaled",0.0563984637624643,0.0459800116394888,0.0647293837895115,0.95,"median","hdci","rsfBrms_PYBI_H1_binary_PYBI_H1_binary"
"b_Intercept",1.44513207815701,1.42731781029007,1.4636504388676,0.95,"median","hdci","rsfBrms_PYBI_H1_binary_PYBI_H1_binary"
"b_methodKDEhref",0.0230405198887767,0.00169713354863897,0.0459388565563607,0.95,"median","hdci","rsfBrms_PYBI_H1_binary_PYBI_H1_binary"
"b_methodMCP",0.0179483671351675,-0.00682109838968229,0.0391378896544389,0.95,"median","hdci","rsfBrms_PYBI_H1_binary_PYBI_H1_binary"
"b_samplingPatternst",0.000694261386021246,-0.0198864797800479,0.0179425255477262,0.95,"median","hdci","rsfBrms_PYBI_H1_binary_PYBI_H1_binary"
"b_availablePointsScaled",0.0084327410048444,0.00275224835240306,0.0140329560945785,0.95,"median","hdci","rsfBrms_PYBI_H1_continuous_PYBI_H1_continuous"
"b_contourScaled",0.0517386442868225,0.0458975866928433,0.0577130760205329,0.95,"median","hdci","rsfBrms_PYBI_H1_continuous_PYBI_H1_continuous"
"b_Intercept",0.0581058887839035,0.0497267057389273,0.0688054512337173,0.95,"median","hdci","rsfBrms_PYBI_H1_continuous_PYBI_H1_continuous"
"b_methodKDEhref",0.110382166897883,0.0979803284627389,0.122988750223848,0.95,"median","hdci","rsfBrms_PYBI_H1_continuous_PYBI_H1_continuous"
"b_methodMCP",1.54607728131461,1.51614377887841,1.57786729964524,0.95,"median","hdci","rsfBrms_PYBI_H1_continuous_PYBI_H1_continuous"
"b_samplingPatternst",-0.00725097767282518,-0.0181635465799554,0.00391754616863598,0.95,"median","hdci","rsfBrms_PYBI_H1_continuous_PYBI_H1_continuous"
"b_availablePointsScaled",0.00994005387003974,-8.08804763738841e-06,0.0201253651713247,0.95,"median","hdci","rsfBrms_BUCA_H1_binary_BUCA_H1_binary"
"b_contourScaled",0.0688667160914967,0.0575742292596756,0.078369530837502,0.95,"median","hdci","rsfBrms_BUCA_H1_binary_BUCA_H1_binary"
"b_Intercept",1.63487642298797,1.61519967674295,1.65636637981139,0.95,"median","hdci","rsfBrms_BUCA_H1_binary_BUCA_H1_binary"
"b_methodKDEhref",-0.142673710583015,-0.172538366371001,-0.119162637618164,0.95,"median","hdci","rsfBrms_BUCA_H1_binary_BUCA_H1_binary"
"b_methodMCP",-0.173998174980989,-0.201664340049268,-0.148702923362161,0.95,"median","hdci","rsfBrms_BUCA_H1_binary_BUCA_H1_binary"
"b_samplingPatternst",-0.00495807230848876,-0.0236027921508405,0.0195268789719231,0.95,"median","hdci","rsfBrms_BUCA_H1_binary_BUCA_H1_binary"
"b_availablePointsScaled",0.184955691102551,0.16506386839175,0.199997245301639,0.95,"median","hdci","rsfBrms_BUCA_H1_continuous_BUCA_H1_continuous"
"b_contourScaled",0.229819551759858,0.21370849645776,0.24523524092336,0.95,"median","hdci","rsfBrms_BUCA_H1_continuous_BUCA_H1_continuous"
"b_Intercept",2.60459349264423,2.56684066960631,2.64621218837832,0.95,"median","hdci","rsfBrms_BUCA_H1_continuous_BUCA_H1_continuous"
"b_methodKDEhref",-0.69272817236189,-0.748141826752492,-0.647273154726708,0.95,"median","hdci","rsfBrms_BUCA_H1_continuous_BUCA_H1_continuous"
"b_methodMCP",-1.1477594949452,-1.1958841421675,-1.1033589002828,0.95,"median","hdci","rsfBrms_BUCA_H1_continuous_BUCA_H1_continuous"
"b_samplingPatternst",0.021657453265719,-0.0116979821613584,0.0515514043842436,0.95,"median","hdci","rsfBrms_BUCA_H1_continuous_BUCA_H1_continuous"
"b_availablePointsScaled",0.00671464230154429,-0.00682915320939675,0.0198035621718563,0.95,"median","hdci","rsfBrms_BUFA_H1_binary_BUFA_H1_binary"
"b_contourScaled",0.0259843967344052,0.0134225690448882,0.0394449261886756,0.95,"median","hdci","rsfBrms_BUFA_H1_binary_BUFA_H1_binary"
"b_Intercept",2.35177917993624,2.32835406940321,2.37971180066226,0.95,"median","hdci","rsfBrms_BUFA_H1_binary_BUFA_H1_binary"
"b_methodKDEhref",-0.0369839394215601,-0.0739335057546057,-0.00872494100332017,0.95,"median","hdci","rsfBrms_BUFA_H1_binary_BUFA_H1_binary"
"b_methodMCP",0.00371655649506106,-0.0292942001803379,0.0376274380059676,0.95,"median","hdci","rsfBrms_BUFA_H1_binary_BUFA_H1_binary"
"b_samplingPatternst",0.00456361348135104,-0.0188042399645035,0.0317778018680224,0.95,"median","hdci","rsfBrms_BUFA_H1_binary_BUFA_H1_binary"
"b_availablePointsScaled",0.0580310722657965,0.0455304429576919,0.0704086571738427,0.95,"median","hdci","rsfBrms_BUFA_H1_continuous_BUFA_H1_continuous"
"b_contourScaled",0.0438690454273439,0.0306127667030803,0.0565439954022653,0.95,"median","hdci","rsfBrms_BUFA_H1_continuous_BUFA_H1_continuous"
"b_Intercept",2.70180957802021,2.59955729134737,2.79588425097323,0.95,"median","hdci","rsfBrms_BUFA_H1_continuous_BUFA_H1_continuous"
"b_methodKDEhref",-1.10678966944433,-1.22095468408185,-0.999509126652199,0.95,"median","hdci","rsfBrms_BUFA_H1_continuous_BUFA_H1_continuous"
"b_methodMCP",-2.38165648931181,-2.47049453291803,-2.27646069431738,0.95,"median","hdci","rsfBrms_BUFA_H1_continuous_BUFA_H1_continuous"
"b_samplingPatternst",-0.00818200491508862,-0.0330120830678623,0.0161399406146852,0.95,"median","hdci","rsfBrms_BUFA_H1_continuous_BUFA_H1_continuous"
"b_availablePerStepScaled",-0.0159301671458774,-0.0524943596234975,0.0146981665424186,0.95,"median","hdci","twoStepBrms_OPHA_H1_binary_OPHA_H1_binary"
"b_Intercept",0.575230993405715,0.169224349702404,1.06225681812322,0.95,"median","hdci","twoStepBrms_OPHA_H1_binary_OPHA_H1_binary"
"b_modelFormulamf.ss",0.935450302653771,0.448926042223564,1.33102047469319,0.95,"median","hdci","twoStepBrms_OPHA_H1_binary_OPHA_H1_binary"
"b_stepDistgamma",-0.067828445980436,-0.134664166515334,-0.00197401708639279,0.95,"median","hdci","twoStepBrms_OPHA_H1_binary_OPHA_H1_binary"
"b_turnDistvonmises",-0.00291357641598106,-0.0753683444292,0.0619939806031576,0.95,"median","hdci","twoStepBrms_OPHA_H1_binary_OPHA_H1_binary"
"b_availablePerStepScaled",0.00268607130987974,-0.0329486951473339,0.0380946641040538,0.95,"median","hdci","twoStepBrms_OPHA_H2_binary_OPHA_H2_binary"
"b_Intercept",0.369029721630158,0.310160581076739,0.428056090211793,0.95,"median","hdci","twoStepBrms_OPHA_H2_binary_OPHA_H2_binary"
"b_stepDistgamma",0.0625162283027422,-0.0179008977101881,0.146651581119325,0.95,"median","hdci","twoStepBrms_OPHA_H2_binary_OPHA_H2_binary"
"b_turnDistvonmises",0.0252345362493817,-0.0544224328315907,0.100151024850613,0.95,"median","hdci","twoStepBrms_OPHA_H2_binary_OPHA_H2_binary"
"b_availablePerStepScaled",0.131978370825246,0.00642325998132667,0.262533301680756,0.95,"median","hdci","twoStepBrms_OPHA_H1_continuous_OPHA_H1_continuous"
"b_Intercept",2.35705370624463,2.06947501176941,2.61871270874638,0.95,"median","hdci","twoStepBrms_OPHA_H1_continuous_OPHA_H1_continuous"
"b_modelFormulamf.ss",-0.184145104055857,-0.441513239816848,0.0732492026753937,0.95,"median","hdci","twoStepBrms_OPHA_H1_continuous_OPHA_H1_continuous"
"b_stepDistgamma",-0.377083508283014,-0.655467113986669,-0.0767088588490472,0.95,"median","hdci","twoStepBrms_OPHA_H1_continuous_OPHA_H1_continuous"
"b_turnDistvonmises",0.0538285419502171,-0.213353514488589,0.323734127992959,0.95,"median","hdci","twoStepBrms_OPHA_H1_continuous_OPHA_H1_continuous"
"b_availablePerStepScaled",-0.000617951553697913,-0.0423110832969899,0.0382747692054389,0.95,"median","hdci","twoStepBrms_OPHA_H2_continuous_OPHA_H2_continuous"
"b_Intercept",-0.0214189158783614,-0.196878558060456,0.139704753729393,0.95,"median","hdci","twoStepBrms_OPHA_H2_continuous_OPHA_H2_continuous"
"b_modelFormulamf.ss",0.266735315764954,0.114782388576181,0.415464220241546,0.95,"median","hdci","twoStepBrms_OPHA_H2_continuous_OPHA_H2_continuous"
"b_stepDistgamma",0.0973339806126594,0.00393107704872528,0.177225399912215,0.95,"median","hdci","twoStepBrms_OPHA_H2_continuous_OPHA_H2_continuous"
"b_turnDistvonmises",0.0205078971840125,-0.0662032922323804,0.112112795944295,0.95,"median","hdci","twoStepBrms_OPHA_H2_continuous_OPHA_H2_continuous"
"b_availablePerStepScaled",0.00788212946640806,-0.0374332601272007,0.0448501885406907,0.95,"median","hdci","twoStepBrms_PYBI_H1_binary_PYBI_H1_binary"
"b_Intercept",0.193573449566311,-0.0478288427579947,0.423632508559872,0.95,"median","hdci","twoStepBrms_PYBI_H1_binary_PYBI_H1_binary"
"b_modelFormulamf.ss",0.898952887456215,0.636978769410601,1.09295658387608,0.95,"median","hdci","twoStepBrms_PYBI_H1_binary_PYBI_H1_binary"
"b_stepDistgamma",-0.029474304644902,-0.119349269018822,0.0500057672800449,0.95,"median","hdci","twoStepBrms_PYBI_H1_binary_PYBI_H1_binary"
"b_turnDistvonmises",0.0135509776221714,-0.069104571585103,0.0958886836593342,0.95,"median","hdci","twoStepBrms_PYBI_H1_binary_PYBI_H1_binary"
"b_availablePerStepScaled",0.052505952584304,-0.17689384865172,0.283374981637619,0.95,"median","hdci","twoStepBrms_PYBI_H1_continuous_PYBI_H1_continuous"
"b_Intercept",1.71079404679715,1.29896776446623,2.17820249726781,0.95,"median","hdci","twoStepBrms_PYBI_H1_continuous_PYBI_H1_continuous"
"b_modelFormulamf.ss",0.795873822841694,0.203980398526976,1.27314209697294,0.95,"median","hdci","twoStepBrms_PYBI_H1_continuous_PYBI_H1_continuous"
"b_stepDistgamma",-0.188398457532051,-0.757821831727067,0.251229137238927,0.95,"median","hdci","twoStepBrms_PYBI_H1_continuous_PYBI_H1_continuous"
"b_turnDistvonmises",0.16763967513509,-0.377003312925972,0.620720796943446,0.95,"median","hdci","twoStepBrms_PYBI_H1_continuous_PYBI_H1_continuous"
"b_availablePerStepScaled",0.102203125399901,0.00537469174206477,0.193810588134801,0.95,"median","hdci","twoStepBrms_BUCA_H1_binary_BUCA_H1_binary"
"b_Intercept",-0.768236754965573,-1.09289608007745,-0.414314597520351,0.95,"median","hdci","twoStepBrms_BUCA_H1_binary_BUCA_H1_binary"
"b_modelFormulamf.ss",2.1398941712549,1.7827355737408,2.45427252754486,0.95,"median","hdci","twoStepBrms_BUCA_H1_binary_BUCA_H1_binary"
"b_stepDistgamma",-0.0614250530932141,-0.250479679823655,0.108642779196945,0.95,"median","hdci","twoStepBrms_BUCA_H1_binary_BUCA_H1_binary"
"b_turnDistvonmises",-0.0307632621849419,-0.2045560015731,0.146394818882754,0.95,"median","hdci","twoStepBrms_BUCA_H1_binary_BUCA_H1_binary"
"b_availablePerStepScaled",0.202493319037947,0.118075425822016,0.283494600104618,0.95,"median","hdci","twoStepBrms_BUCA_H1_continuous_BUCA_H1_continuous"
"b_Intercept",1.15396736441494,0.893885960268261,1.41166268308257,0.95,"median","hdci","twoStepBrms_BUCA_H1_continuous_BUCA_H1_continuous"
"b_modelFormulamf.ss",-0.164567655913652,-0.420585877151401,0.0710215979641279,0.95,"median","hdci","twoStepBrms_BUCA_H1_continuous_BUCA_H1_continuous"
"b_stepDistgamma",0.0569346322770318,-0.0695646131887654,0.216309559188283,0.95,"median","hdci","twoStepBrms_BUCA_H1_continuous_BUCA_H1_continuous"
"b_turnDistvonmises",0.0777223667626787,-0.0600432386826173,0.210902719948719,0.95,"median","hdci","twoStepBrms_BUCA_H1_continuous_BUCA_H1_continuous"
"b_availablePerStepScaled",-0.044215085643386,-0.132886394696979,0.0408343191433586,0.95,"median","hdci","twoStepBrms_BUFA_H1_binary_BUFA_H1_binary"
"b_Intercept",0.276673822555181,-0.119863090253516,0.726253008028445,0.95,"median","hdci","twoStepBrms_BUFA_H1_binary_BUFA_H1_binary"
"b_modelFormulamf.ss",1.69905023862564,1.301618039539,2.14072269316101,0.95,"median","hdci","twoStepBrms_BUFA_H1_binary_BUFA_H1_binary"
"b_stepDistgamma",-0.022733297288121,-0.18575444923104,0.145852773095965,0.95,"median","hdci","twoStepBrms_BUFA_H1_binary_BUFA_H1_binary"
"b_turnDistvonmises",-0.0422211241993423,-0.189332099792869,0.141567224795757,0.95,"median","hdci","twoStepBrms_BUFA_H1_binary_BUFA_H1_binary"
"b_availablePerStepScaled",0.52391183803335,0.0659343586977098,0.967063293722482,0.95,"median","hdci","twoStepBrms_BUFA_H1_continuous_BUFA_H1_continuous"
"b_Intercept",0.979360472816763,0.0439005666814576,1.859993811853,0.95,"median","hdci","twoStepBrms_BUFA_H1_continuous_BUFA_H1_continuous"
"b_modelFormulamf.ss",2.03299096031496,1.13215311995186,3.00920854324855,0.95,"median","hdci","twoStepBrms_BUFA_H1_continuous_BUFA_H1_continuous"
"b_stepDistgamma",-0.0328286630166689,-0.884356394968219,0.868133675856576,0.95,"median","hdci","twoStepBrms_BUFA_H1_continuous_BUFA_H1_continuous"
"b_turnDistvonmises",0.110655646680083,-0.821409750402362,0.921133691031261,0.95,"median","hdci","twoStepBrms_BUFA_H1_continuous_BUFA_H1_continuous"
